JOBS = 1..5;
MACHINES = 1..3;
SPEED = 3;
time = array3d(JOBS,MACHINES,1..SPEED,[237,58,42,78,19,14,179,44,32,145,35,26,201,49,36,39,9,7,150,36,27,60,14,10,96,23,17,218,53,39,142,35,25,128,31,23,247,60,44,151,37,27,200,48,35]);
energy = array3d(JOBS,MACHINES,1..SPEED,[9,55,65,45,82,86,16,64,72,23,70,77,13,61,69,67,91,93,22,69,76,54,86,90,38,79,84,11,58,67,24,70,77,27,73,79,8,54,64,22,69,76,13,61,70]);
precedence = array2d(JOBS,MACHINES,[2,1,0,0,2,1,0,2,1,0,1,2,1,0,2]);
ME = 1;
TE = 119;
st_old = array2d(JOBS,MACHINES,[425,296,0,280,434,427,53,374,203,0,154,299,220,0,435]);
SpeedScaling = array2d(JOBS,MACHINES,[2,1,1,1,2,3,1,1,1,2,1,1,2,1,2]);
